p edge 46
e 0 1
e 0 4
e 0 15
e 0 16
e 0 18
e 0 30
e 0 34
e 0 36
e 1 15
e 1 16
e 1 22
e 1 23
e 1 44
e 2 8
e 2 16
e 2 23
e 2 25
e 2 31
e 2 32
e 2 35
e 2 37
e 2 40
e 3 12
e 3 21
e 3 38
e 3 45
e 4 11
e 4 18
e 4 26
e 4 30
e 5 8
e 5 26
e 5 31
e 5 32
e 6 20
e 6 29
e 6 33
e 6 37
e 7 41
e 7 43
e 8 9
e 8 31
e 8 35
e 8 42
e 9 14
e 9 19
e 9 42
e 10 20
e 10 33
e 10 38
e 10 41
e 11 18
e 11 26
e 12 21
e 12 24
e 13 17
e 13 24
e 13 27
e 13 28
e 13 44
e 14 25
e 14 35
e 15 36
e 15 44
e 16 23
e 16 30
e 16 32
e 17 21
e 17 22
e 17 28
e 17 39
e 17 44
e 18 34
e 19 42
e 20 33
e 21 24
e 21 28
e 21 38
e 21 39
e 22 23
e 22 39
e 22 40
e 22 44
e 23 40
e 24 28
e 25 35
e 25 37
e 26 30
e 26 32
e 27 34
e 27 36
e 27 44
e 29 33
e 29 37
e 29 39
e 29 40
e 30 32
e 31 32
e 33 38
e 33 39
e 34 36
e 36 44
e 37 40
e 38 39
e 38 45
e 39 40
e 41 43
e 41 45
e 43 45
c k 7
